50, 633
43, 48
42, 47
39, 44
34, 39
30, 35
7, 12
4, 9
34, 39
22, 27
6, 11
3, 8
5, 10
28, 33
45, 50
11, 16
45, 50
28, 33
32, 37
41, 46
16, 21
12, 17
12, 17
34, 39
10, 15
5, 10
22, 27
9, 14
40, 45
46, 51
44, 49
8, 13
22, 27
48, 53
28, 33
1, 6
5, 10
15, 20
46, 51
17, 22
11, 16
31, 36
45, 50
34, 39
48, 53
27, 32
32, 37
19, 24
30, 35
9, 14
42, 47
